(set-logic ALL)
(declare-fun var0 () String)
(assert (str.in_re var0 (re.++ (re.* (re.union (str.to_re "0") (str.to_re "11"))) (re.++ (re.+ (re.union (str.to_re "22") (str.to_re "3"))) (re.++ (re.union (re.+ (str.to_re "444")) (re.+ (str.to_re "55"))) (re.++ (re.union (re.+ (str.to_re "6")) (re.+ (str.to_re "77"))) (re.++ (re.* (re.* (str.to_re "8"))) (re.++ (re.* (re.+ (str.to_re "9"))) (re.++ (re.union (re.* (str.to_re "a")) (re.* (str.to_re "bbb"))) (re.++ (re.union (re.* (str.to_re "ccc")) (re.* (str.to_re "d"))) (re.++ (re.* (re.union (str.to_re "eee") (str.to_re "ff"))) (re.+ (re.* (str.to_re "ggg"))))))))))))))
(assert (<= 276 (str.len var0)))
(check-sat)